SCIP Status        : solving was interrupted [time limit reached]
Total Time         :    3600.00
  solving          :    3600.00
  presolving       :       0.28 (included in solving)
  reading          :       0.00
  copying          :       0.93 (70 #copies) (minimal 0.00, maximal 0.03, average 0.01)
Original Problem   :
  Problem name     : bbbenchmark/pw09_100.6.cut
  Variables        : 101 (100 binary, 0 integer, 0 implicit integer, 1 continuous)
  Constraints      : 1 initial, 1 maximal
  Objective        : minimize, 1 non-zeros (abs.min = 1, abs.max = 1)
Presolved Problem  :
  Problem name     : t_bbbenchmark/pw09_100.6.cut
  Variables        : 1330 (100 binary, 0 integer, 1181 implicit integer, 49 continuous)
  Constraints      : 1326 initial, 4202 maximal
  Objective        : minimize, 1 non-zeros (abs.min = 1, abs.max = 1)
  Nonzeros         : 11661 constraint, 202 clique table
Presolvers         :   ExecTime  SetupTime  Calls  FixedVars   AggrVars   ChgTypes  ChgBounds   AddHoles    DelCons    AddCons   ChgSides   ChgCoefs
  boundshift       :       0.00       0.00      0          0          0          0          0          0          0          0          0          0
  convertinttobin  :       0.00       0.00      0          0          0          0          0          0          0          0          0          0
  domcol           :       0.00       0.00      1          0          0          0          0          0          0          0          0          0
  dualagg          :       0.00       0.00      0          0          0          0          0          0          0          0          0          0
  dualcomp         :       0.00       0.00      1          0          0          0          0          0          0          0          0          0
  dualinfer        :       0.00       0.00      0          0          0          0          0          0          0          0          0          0
  dualsparsify     :       0.00       0.00      1          0          0          0          0          0          0          0          0          0
  gateextraction   :       0.00       0.00      0          0          0          0          0          0          0          0          0          0
  implics          :       0.00       0.00      2          0          0          0          0          0          0          0          0          0
  inttobinary      :       0.00       0.00      0          0          0          0          0          0          0          0          0          0
  qpkktref         :       0.00       0.00      0          0          0          0          0          0          0          0          0          0
  redvub           :       0.00       0.00      0          0          0          0          0          0          0          0          0          0
  sparsify         :       0.00       0.00      1          0          0          0          0          0          0          0          0          0
  stuffing         :       0.00       0.00      0          0          0          0          0          0          0          0          0          0
  trivial          :       0.00       0.00      4          0          0          0          0          0          0          0          0          0
  tworowbnd        :       0.00       0.00      0          0          0          0          0          0          0          0          0          0
  dualfix          :       0.00       0.00      4          0          0          0          0          0          0          0          0          0
  genvbounds       :       0.00       0.00      0          0          0          0          0          0          0          0          0          0
  probing          :       0.11       0.00      1          0          0          0          0          0          0          0          0          0
  pseudoobj        :       0.00       0.00      1          0          0          0          1          0          0          0          0          0
  symmetry         :       0.00       0.00      0          0          0          0          0          0          0          0          0          0
  vbounds          :       0.00       0.00      1          0          0          0          0          0          0          0          0          0
  varbound         :       0.00       0.00      2          0          0          0          0          0          0          0          0          0
  and              :       0.00       0.00      2          0          0          0          0          0          0          0          0          0
  linear           :       0.01       0.00      2          0          0          0          0          0          0          0          0          0
  logicor          :       0.00       0.00      0          0          0          0          0          0          0          0          0          0
  bounddisjunction :       0.00       0.00      0          0          0          0          0          0          0          0          0          0
  nonlinear        :       0.13       0.01      5          0          0          0          1          0          0       1325          0          0
  benders          :       0.00       0.00      0          0          0          0          0          0          0          0          0          0
  components       :       0.00       0.00      1          0          0          0          0          0          0          0          0          0
  root node        :          -          -      -          0          -          -          8          -          -          -          -          -
Constraints        :     Number  MaxNumber  #Separate #Propagate    #EnfoLP    #EnfoRelax  #EnfoPS    #Check   #ResProp    Cutoffs    DomReds       Cuts    Applied      Conss   Children
  benderslp        :          0          0          0          0     432963          0          0      41382          0          0          0          0          0          0          0
  integral         :          0          0          0          0     432963          0          0      41382          0          0         15          0          0          0     865904
  varbound         :         48         48         34    2022134          0          0          0       4362         14          0     322750          0          0          0          0
  and              :       1181       1181     519525    2035879          0          0          0       2681     241804          2    3981845       2855       2330          0          0
  linear           :         97+       134         34    2038245          0          0          0       2679      34594        489    8536274          0          0          0          0
  logicor          :          0+      1096          0     132592          0          0          0          0         14        263         12          0          0          0          0
  bounddisjunction :          0+      1786          0     232513          0          0          0          0         10         43          1          0          0          0          0
  benders          :          0          0          0          0          0          0          0        107          0          0          0          0          0          0          0
  countsols        :          0          0          0          0          0          0          0        107          0          0          0          0          0          0          0
  components       :          0          0          0          0          0          0          0          0          0          0          0          0          0          0          0
Constraint Timings :  TotalTime  SetupTime   Separate  Propagate     EnfoLP     EnfoPS     EnfoRelax   Check    ResProp    SB-Prop
  benderslp        :       0.34       0.00       0.00       0.00       0.31       0.00       0.00       0.03       0.00       0.00
  integral         :      88.01       0.00       0.00       0.00      87.68       0.00       0.00       0.33       0.00       0.00
  varbound         :       4.71       0.00       0.00       4.63       0.00       0.00       0.00       0.08       0.00       0.00
  and              :     212.26       0.00     156.79      54.48       0.00       0.00       0.00       0.66       0.24       0.09
  linear           :      52.37       0.00       0.04      52.08       0.00       0.00       0.00       0.03       0.19       0.03
  logicor          :       4.26       0.00       0.00       4.26       0.00       0.00       0.00       0.00       0.00       0.00
  bounddisjunction :       8.27       0.00       0.00       8.27       0.00       0.00       0.00       0.00       0.00       0.00
  benders          :       0.00       0.00       0.00       0.00       0.00       0.00       0.00       0.00       0.00       0.00
  countsols        :       0.00       0.00       0.00       0.00       0.00       0.00       0.00       0.00       0.00       0.00
  components       :       0.64       0.00       0.00       0.64       0.00       0.00       0.00       0.00       0.00       0.00
Propagators        : #Propagate   #ResProp    Cutoffs    DomReds
  dualfix          :          2          0          0          0
  genvbounds       :          0          0          0          0
  nlobbt           :          0          0          0          0
  obbt             :          0          0          0          0
  probing          :          0          0          0          0
  pseudoobj        :    2070135          3          0       3793
  redcost          :    1016745          0          0     526325
  rootredcost      :          6          0          0          0
  symmetry         :          0          0          0          0
  vbounds          :     450447          0          0          0
Propagator Timings :  TotalTime  SetupTime   Presolve  Propagate    ResProp    SB-Prop
  dualfix          :       0.00       0.00       0.00       0.00       0.00       0.00
  genvbounds       :       1.68       0.00       0.00       1.67       0.00       0.01
  nlobbt           :       0.00       0.00       0.00       0.00       0.00       0.00
  obbt             :       0.00       0.00       0.00       0.00       0.00       0.00
  probing          :       0.11       0.00       0.11       0.00       0.00       0.00
  pseudoobj        :       2.83       0.00       0.00       2.83       0.00       0.00
  redcost          :      53.44       0.00       0.00      53.44       0.00       0.00
  rootredcost      :       2.06       0.00       0.00       2.05       0.00       0.01
  symmetry         :       1.12       0.00       0.00       1.12       0.00       0.00
  vbounds          :       2.22       0.00       0.00       2.22       0.00       0.00
Conflict Analysis  :       Time      Calls    Success    DomReds  Conflicts   Literals    Reconvs ReconvLits   Dualrays   Nonzeros   LP Iters   (pool size: [10000,10000])
  propagation      :       0.01        312        212          -        376       79.4          0        0.0          -          -          -
  infeasible LP    :       1.15       1541       1541          -       6046      136.8          0        0.0       2302      123.2          0
  bound exceed. LP :      16.09       4436       4188          -      76071      112.5          9       26.4          0        0.0      64593
  strong branching :       0.00          0          0          -          0        0.0          0        0.0          -          -          0
  pseudo solution  :       0.00          0          0          -          0        0.0          0        0.0          -          -          -
  applied globally :       0.30          -          -          0      18691      103.3          -          -       2302          -          -
  applied locally  :          -          -          -          0          0        0.0          -          -          0          -          -
Separators         :   ExecTime  SetupTime      Calls  RootCalls    Cutoffs    DomReds  FoundCuts ViaPoolAdd  DirectAdd    Applied ViaPoolApp  DirectApp      Conss
  cut pool         :       5.24          -      56988         57          -          -      31333    1060955          -          -          -          -          -    (maximal pool size:       1995)
  aggregation      :      87.16       0.00       5191         34          0          0       1559      35868          0      28561      28561          0          0
  > cmir           :          -          -          -          -          -          -          -      35864          0      28560      28560          0          -
  > flowcover      :          -          -          -          -          -          -          -          4          0          1          1          0          -
  > knapsackcover  :          -          -          -          -          -          -          -          0          0          0          0          0          -
  cgmip            :       0.00       0.00          0          0          0          0          0          0          0          0          0          0          0
  clique           :       0.00       0.00         34         34          0          0          0          0          0          0          0          0          0
  closecuts        :       0.00       0.00          0          0          0          0          0          0          0          0          0          0          0
  convexproj       :       0.00       0.00          0          0          0          0          0          0          0          0          0          0          0
  disjunctive      :       0.00       0.00          0          0          0          0          0          0          0          0          0          0          0
  eccuts           :       0.00       0.00          0          0          0          0          0          0          0          0          0          0          0
  gauge            :       0.00       0.00          0          0          0          0          0          0          0          0          0          0          0
  gomory           :       0.00       0.00          0          0          0          0          0          0          0          0          0          0          0
  > gomorymi       :          -          -          -          -          -          -          -          0          0          0          0          0          -
  > strongcg       :          -          -          -          -          -          -          -          0          0          0          0          0          -
  impliedbounds    :       0.36       0.00       5191         34          0          0          9          0          0          0          0          0          0
  interlattice     :       0.19       0.00          7          7          0          0          7          0          7          6          0          6          0
  interminor       :       0.00       0.00          0          0          0          0          0          0          0          0          0          0          0
  intersub         :       0.03       0.00          1          1          0          0          1          0          1          1          0          1          0
  intobj           :       0.00       0.00          0          0          0          0          0          0          0          0          0          0          0
  mcf              :       0.00       0.00          1          1          0          0          0          0          0          0          0          0          0
  minor            :       0.00       0.00          0          0          0          0          0          0          0          0          0          0          0
  mixing           :       0.01       0.00       5191         34          0          0          0          0          0          0          0          0          0
  oddcycle         :       0.00       0.00          0          0          0          0          0          0          0          0          0          0          0
  rapidlearning    :       0.06       0.00          0          0          0          0          0          0          0          0          0          0          0
  rlt              :       0.00       0.00         10         10          0          0          0          0          0          0          0          0          0
  zerohalf         :      25.73       0.00       4869         20          0          0      29765    1025087          0     257001     257001          0          0
Cutselectors       :   ExecTime  SetupTime      Calls  RootCalls   Selected     Forced   Filtered  RootSelec   RootForc   RootFilt 
  hybrid           :       0.98       0.00      33459         34     287899          0     775919        137          0         31
Pricers            :   ExecTime  SetupTime      Calls       Vars
  problem variables:       0.00          -          0          0
Branching Rules    :   ExecTime  SetupTime   BranchLP  BranchExt   BranchPS    Cutoffs    DomReds       Cuts      Conss   Children
  allfullstrong    :       0.00       0.00          0          0          0          0          0          0          0          0
  cloud            :       0.00       0.00          0          0          0          0          0          0          0          0
  distribution     :       0.00       0.00          0          0          0          0          0          0          0          0
  fullstrong       :       0.00       0.00          0          0          0          0          0          0          0          0
  inference        :       0.00       0.00          0          0          0          0          0          0          0          0
  leastinf         :       0.00       0.00          0          0          0          0          0          0          0          0
  lookahead        :       0.00       0.00          0          0          0          0          0          0          0          0
  mostinf          :       0.00       0.00          0          0          0          0          0          0          0          0
  multaggr         :       0.00       0.00          0          0          0          0          0          0          0          0
  nodereopt        :       0.00       0.00          0          0          0          0          0          0          0          0
  pscost           :       0.00       0.00          0          0          0          0          0          0          0          0
  random           :       0.00       0.00          0          0          0          0          0          0          0          0
  relpscost        :      86.62       0.00     432963          0          0          0         15          0          0     865904
  vanillafullstrong:       0.00       0.00          0          0          0          0          0          0          0          0
Primal Heuristics  :   ExecTime  SetupTime      Calls      Found       Best
  LP solutions     :       0.00          -          -          0          0
  relax solutions  :       0.00          -          -          0          0
  pseudo solutions :       0.00          -          -          0          0
  strong branching :       0.00          -          -          0          0
  actconsdiving    :       0.00       0.00          0          0          0
  adaptivediving   :       2.09       0.00         38          0          0
  alns             :       1.74       0.00         23          0          0
  bound            :       0.00       0.00          0          0          0
  clique           :       0.00       0.00          1          0          0
  coefdiving       :       0.00       0.00          0          0          0
  completesol      :       0.00       0.00          0          0          0
  conflictdiving   :     104.70       0.00        880          0          0
  crossover        :       2.41       0.00          4          0          0
  dins             :       0.00       0.00          0          0          0
  distributiondivin:      69.41       0.00        392          0          0
  dps              :       0.00       0.00          0          0          0
  dualval          :       0.00       0.00          0          0          0
  farkasdiving     :       0.01       0.00          0          0          0
  feaspump         :       0.21       0.00          7          1          0
  fixandinfer      :       0.00       0.00          0          0          0
  fracdiving       :      34.76       0.00        334          0          0
  gins             :       0.47       0.00          0          0          0
  guideddiving     :      36.59       0.00        352          2          2
  indicator        :       0.58       0.00          0          0          0
  indicatordiving  :       0.00       0.00          0          0          0
  intdiving        :       0.00       0.00          0          0          0
  intshifting      :       0.74       0.00        129          0          0
  linesearchdiving :      31.56       0.00        451          1          1
  localbranching   :       0.00       0.00          0          0          0
  locks            :       0.00       0.00          1          0          0
  lpface           :       0.66       0.00          0          0          0
  mpec             :      46.20       0.00         11          0          0
  multistart       :       0.00       0.00          0          0          0
  mutation         :       0.00       0.00          0          0          0
  nlpdiving        :       6.85       0.00          1          0          0
  objpscostdiving  :      29.95       0.00        118         13          1
  octane           :       0.00       0.00          0          0          0
  ofins            :       0.38       0.00          0          0          0
  oneopt           :       0.45       0.00          8          0          0
  padm             :       0.00       0.00          0          0          0
  proximity        :       0.00       0.00          0          0          0
  pscostdiving     :      34.95       0.00        245          1          1
  randrounding     :       2.20       0.00      41289          0          0
  rens             :       0.00       0.00          0          0          0
  reoptsols        :       0.00       0.00          0          0          0
  repair           :       0.00       0.00          0          0          0
  rins             :       4.64       0.00         42          0          0
  rootsoldiving    :      31.16       0.00        448         82          0
  rounding         :       2.31       0.00       9565          0          0
  shiftandpropagate:       0.00       0.00          0          0          0
  shifting         :      32.88       0.00      10481          1          1
  simplerounding   :       0.45       0.00          0          0          0
  subnlp           :     487.36       0.00          0          0          0
  trivial          :       0.02       0.00          2          2          2
  trivialnegation  :       0.00       0.00          0          0          0
  trustregion      :       0.00       0.00          0          0          0
  trysol           :       0.61       0.00          0          0          0
  twoopt           :       0.00       0.00          0          0          0
  undercover       :       2.55       0.00          1          1          1
  vbounds          :       0.00       0.00          0          0          0
  veclendiving     :      35.98       0.00        608          0          0
  zeroobj          :       0.00       0.00          0          0          0
  zirounding       :       0.59       0.00       1000          0          0
  other solutions  :          -          -          -          0          -
Diving (single)    :      Calls      Nodes   LP Iters Backtracks  Conflicts   MinDepth   MaxDepth   AvgDepth  RoundSols  NLeafSols  MinSolDpt  MaxSolDpt  AvgSolDpt
  actconsdiving    :          0          -          -          -          -          -          -          -          -          -          -          -          -
  coefdiving       :          0          -          -          -          -          -          -          -          -          -          -          -          -
  conflictdiving   :        880      38960     990296        674      18069         62         89       77.5          0          -          -          -          -
  distributiondivin:        392      17110     335959        462       7974         61         93       73.7          0          -          -          -          -
  farkasdiving     :          0          -          -          -          -          -          -          -          -          -          -          -          -
  fracdiving       :        334      35356     337100        101       1463         70        509      134.5          0          -          -          -          -
  guideddiving     :        352      30566     355300         34       5392         70        252      115.9          0          2        117        118      117.5
  indicatordiving  :          0          -          -          -          -          -          -          -          -          -          -          -          -
  linesearchdiving :        451      26456     341413         25      11527         69        108       90.1          0          1         91         91       91.0
  pscostdiving     :        245      12526     354544        273       5642         67         95       80.2          0          1         86         86       86.0
  veclendiving     :        608      33155     331981        514      31630         70         97       84.0          0          -          -          -          -
Diving (adaptive)  :      Calls      Nodes   LP Iters Backtracks  Conflicts   MinDepth   MaxDepth   AvgDepth  RoundSols  NLeafSols  MinSolDpt  MaxSolDpt  AvgSolDpt
  actconsdiving    :          2         56        105          3         19         73         75       74.0          0          -          -          -          -
  coefdiving       :          6        340       2357          4        214         76         94       85.5          0          -          -          -          -
  conflictdiving   :          0          -          -          -          -          -          -          -          -          -          -          -          -
  distributiondivin:          0          -          -          -          -          -          -          -          -          -          -          -          -
  farkasdiving     :          0          -          -          -          -          -          -          -          -          -          -          -          -
  fracdiving       :          4        203       1283          0         24         80        139       96.0          0          -          -          -          -
  guideddiving     :          4        236       2868          1         88         78        102       90.8          0          -          -          -          -
  indicatordiving  :          0          -          -          -          -          -          -          -          -          -          -          -          -
  linesearchdiving :         15        670       7867          3        312         70         98       86.9          0          -          -          -          -
  pscostdiving     :          2         99       2141          3         48         81         81       81.0          0          -          -          -          -
  veclendiving     :          5        217       1723          2         59         72         93       81.6          0          -          -          -          -
Neighborhoods      :      Calls  SetupTime  SolveTime SolveNodes       Sols       Best       Exp3  EpsGreedy        UCB TgtFixRate  Opt  Inf Node Stal  Sol  Usr Othr Actv
  rens             :          2       0.02       0.10         57          0          0    0.00000   -1.00000    0.46492      0.850    0    1    0    1    0    0    0    1
  rins             :          3       0.06       0.14        153          0          0    0.00000   -1.00000    0.46499      0.900    0    1    0    2    0    0    0    1
  mutation         :          4       0.11       0.32        195          0          0    0.00000   -1.00000    0.46136      0.822    0    2    0    2    0    0    0    1
  localbranching   :          3       0.06       0.13        156          0          0    0.00000   -1.00000    0.46517      0.900    0    1    0    2    0    0    0    1
  crossover        :          4       0.07       0.14        142          0          0    0.00000   -1.00000    0.47026      0.822    0    2    0    2    0    0    0    1
  proximity        :          2       0.03       0.11         56          0          0    0.00000   -1.00000    0.47209      0.850    0    1    0    1    0    0    0    1
  zeroobjective    :          2       0.03       0.06        118          0          0    0.00000   -1.00000    0.45342      0.850    0    1    0    1    0    0    0    1
  dins             :          3       0.04       0.10        139          0          0    0.00000   -1.00000    0.46584      0.900    0    1    0    2    0    0    0    1
  trustregion      :          0       0.00       0.00          0          0          0    0.00000   -1.00000    1.00000      0.900    0    0    0    0    0    0    0    0
Expressions        :   #IntEval  IntEvalTi   #RevProp  RevPropTi    DomReds    Cutoffs  #Estimate  EstimTime  Branching  #Simplify SimplifyTi Simplified
  pow              :          0       0.00          0       0.00          0          0          0       0.00          0          0       0.00          0
  prod             :      17820       0.02          0       0.00          0          0          0       0.00          0      10091       0.01          0
  sum              :          8       0.00          2       0.00          0          0          0       0.00          0          3       0.04          2
  var              :       4799       0.00          0       0.00          0          0          0       0.00          0      21714       0.00          0
  varidx           :          0       0.00          0       0.00          0          0          0       0.00          0          0       0.00          0
LP                 :       Time      Calls Iterations  Iter/call   Iter/sec  Time-0-It Calls-0-It    ItLimit
  primal LP        :      98.96      28296          0       0.00       0.00      98.88      28296
  dual LP          :    1310.29     821025    6508197       9.27    4966.99      43.16     118764
  lex dual LP      :       0.00          0          0       0.00          -
  barrier LP       :       0.00          0          0       0.00          -       0.00          0
  resolve instable :       0.00          0          0       0.00          -
  diving/probing LP:     311.14      25765    3488513     135.40   11212.04
  strong branching :       4.35        818      50067      61.21   11509.66          -          -        481
    (at root node) :          -         20       3159     157.95          -
  conflict analysis:       7.77       6965      64593       9.27    8313.13
NLP relaxation     :
  solve time       :       6.55 (8 calls)
  convexity        :  nonconvex (145 linear rows, 0 convex ineq., 0 nonconvex ineq., 1181 nonlinear eq. or two-sided ineq.)
NLP Solvers        :  #Problems  ProblemTi    #Solves  SolveTime      #Iter  Time/Iter      #Okay #TimeLimit #IterLimit #LObjLimit #Interrupt  #NumError #EvalError  #OutOfMem #LicenseEr #OtherTerm   #GlobOpt    #LocOpt  #Feasible #LocInfeas #GlobInfea #Unbounded   #Unknown
  ipopt            :         12      21.04         45      52.83       1698       0.03         43          0          2          0          0          0          0          0          0          0          0         27          0         16          0          0          2
B&B Tree           :
  number of runs   :          1
  nodes            :     670315 (432952 internal, 237363 leaves)
  feasible leaves  :          0
  infeas. leaves   :       1527
  objective leaves :     235835
  nodes (total)    :     670315 (432952 internal, 237363 leaves)
  nodes left       :     195331
  max depth        :         78
  max depth (total):         78
  backtracks       :     138204 (20.6%)
  early backtracks :          0 (0.0%)
  nodes exc. ref.  :          0 (0.0%)
  delayed cutoffs  :          5
  repropagations   :         48 (541 domain reductions, 1 cutoffs)
  avg switch length:       7.38
  switching time   :     262.18
Estim. Tree Size   :    1341148
Estimation Tree    : 865905 nodes (670574 visited, 432952 internal, 237622 leaves, 195331 open), weight: 0.0000 completed 0.0425
Estimations        :      estim      value      trend resolution     smooth
  wbe              :         in          -          -          -          -
  tree-profile     :         -1          -          -          -          -
  gap              :   39326242    0.59969    0.00001        256   39059364
  tree-weight      :    1341148    0.00000    0.00000        256    1340144
  leaf-frequency   :    1341148    0.35436   -0.00002        256    1340144
  ssg              :   71125122    0.93291   -0.00001        256   71105041
  open-nodes       :    1341148 195331.00000  217.29634        256    1340144
Root Node          :
  First LP value   : -5.55465768799102e+00
  First LP Iters   :       2240 (20363.64 Iter/sec)
  First LP Time    :       0.11
  Final Dual Bound : -5.42783255567618e+00
  Final Root Iters :       2839
  Root LP Estimate : -2.17856906966101e+00
Solution           :
  Solutions found  :        104 (9 improvements)
  First Solution   : +1.00000000000000e+05   (in run 1, after 0 nodes, 0.05 seconds, depth 0, found by <trivial>)
  Gap First Sol.   :   infinite
  Gap Last Sol.    :      75.00 %
  Primal Bound     : -2.95173961840635e+00   (in run 1, after 27708 nodes, 265.51 seconds, depth 91, found by <linesearchdiving>)
  Dual Bound       : -4.92214999386722e+00
  Gap              :      66.75 %
Integrals          :      Total       Avg%
  primal-dual      :  147756.09      41.04
  primal-ref       :          -          - (not evaluated)
  dual-ref         :          -          - (not evaluated)
